79
125
100	1
99	5
98	2
97	2
96	2
95	2
94	3
93	2
92	2
90	2
89	1
88	2
87	4
86	5
85	3
84	4
83	5
82	3
81	1
80	2
79	2
78	3
77	2
76	2
75	1
74	3
73	2
72	1
71	1
70	1
69	2
68	4
67	5
66	3
65	2
64	3
63	2
62	2
61	3
60	2
59	6
58	4
57	1
56	3
55	3
54	3
53	3
52	1
51	2
49	2
48	1
46	4
45	1
44	4
43	3
42	4
41	2
40	1
39	1
38	3
37	3
36	3
35	2
34	3
33	3
31	1
30	6
28	6
27	5
25	2
23	2
21	1
20	2
19	2
18	2
16	2
15	2
14	1
13	1
